NAME : a25
COMMENT : drilling problem (Ludwig)
TYPE : TSP
DIMENSION: 25
EDGE_WEIGHT_TYPE : EUC_2D
NODE_COORD_SECTION
0	1	2	3	4	
0	1	2	3	4	

Path: 
1	2	3	4	5	6	7	8	9	10	11	12	13	15	14	16	17	18	19	20	21	22	23	24	25	1	
Dist: 304.109742042312738
Execution time: 0(ms)
TSP algorithm time: 0(ms)
	Command being timed: "./k-means_mod ./dataset/a25.tsp"
	User time (seconds): 0.00
	System time (seconds): 0.00
	Percent of CPU this job got: 100%
	Elapsed (wall clock) time (h:mm:ss or m:ss): 0:00.00
	Average shared text size (kbytes): 0
	Average unshared data size (kbytes): 0
	Average stack size (kbytes): 0
	Average total size (kbytes): 0
	Maximum resident set size (kbytes): 3964
	Average resident set size (kbytes): 0
	Major (requiring I/O) page faults: 0
	Minor (reclaiming a frame) page faults: 149
	Voluntary context switches: 1
	Involuntary context switches: 0
	Swaps: 0
	File system inputs: 0
	File system outputs: 8
	Socket messages sent: 0
	Socket messages received: 0
	Signals delivered: 0
	Page size (bytes): 4096
	Exit status: 0
